c --- [ banner ] -------------------------------------------------------------
c 
c CaDiCaL SAT Solver
c Copyright (c) 2016-2025
c A. Biere, M. Fleury, N. Froleyks, K. Fazekas, F. Pollitt, T. Faller
c JKU Linz, University of Freiburg, TU Wien
c 
c Version 3.0.0 7b99c07f0bcab5824a5a3ce62c7066554017f641
c Apple clang version 21.0.0 (clang-2100.0.123.102) -Wall -Wextra -O3 -DNDEBUG -DNCLOSEFROM
c Thu Apr 23 22:35:47 PDT 2026 Darwin dada-mun-26.local 25.4.0 arm64
c 
c --- [ limit ] --------------------------------------------------------------
c 
c setting time limit to 10 seconds real time (due to '-t 10')
c 
c --- [ parsing input ] ------------------------------------------------------
c 
c reading DIMACS file from '/private/tmp/p97-bare-generic-n14.cnf'
c opening file to read '/private/tmp/p97-bare-generic-n14.cnf'
c found 'p cnf 50493 253357' header
c parsed 253357 clauses in 0.04 seconds process time
c 
c --- [ options ] ------------------------------------------------------------
c 
c   --compact=false                (different from default 'true')
c   --congruence=false             (different from default 'true')
c   --decompose=false              (different from default 'true')
c   --deduplicate=false            (different from default 'true')
c   --eagersubsume=false           (different from default 'true')
c   --elim=false                   (different from default 'true')
c   --factor=false                 (different from default 'true')
c   --factorunbump=false           (different from default 'true')
c   --fastelim=false               (different from default 'true')
c   --inprobing=false              (different from default 'true')
c   --inprocessing=false           (different from default 'true')
c   --preprocesslight=false        (different from default 'true')
c   --probe=false                  (different from default 'true')
c   --subsume=false                (different from default 'true')
c   --sweep=false                  (different from default 'true')
c   --ternary=false                (different from default 'true')
c   --transred=false               (different from default 'true')
c   --vivify=false                 (different from default 'true')
c 
c --- [ solving ] ------------------------------------------------------------
c 
c time measured in process time since initialization
c 
c  seconds  reduction conflicts       size tier2        variables
c         MB    restarts   redundant    glue  trail          remaining
c          level     rate       size/glu tier1  irredundant
c 
c *  0.05  0  0 0   0  0    0    0 0.0 0 0 2 6  0% 253161 50437 100%
c )  0.05  0  0 0   0  0    0    0 0.0 1 0 2 6  0% 253161 50434 100%
c {  0.05  0  0 0   0  0    0    0 0.0 1 0 2 6  0% 253161 50434 100%
c i  0.05  0  0 0   0  0    0    0 0.0 1 0 2 6  0% 253161 50434 100%
c -  0.07  0 1902 1   3 154  301  230 2.1 8 4 2 6 14% 253054 50434 100%
c -  0.15  0 661 2  88 65  909  613 1.7 9 5 2 6 19% 253054 50434 100%
c }  0.17  0 613 2 103 61 1001  694 1.7 9 5 2 6 20% 253054 50434 100%
c [  0.17  0  0 2 103  0 1001  694 0.0 0 0 2 6  0% 253054 50434 100%
c O  0.17  0 75 2 103 76 1002  695 31.0 31 1 2 6  6% 253054 50434 100%
c -  0.22  0 94 3 103  2 1966 1044 2.0 17 9 2 6 22% 253054 50434 100%
c ]  0.27  0 122 3 104  2 2801 1830 2.1 22 11 2 6 32% 253054 50434 100%
c {  0.27  0 613 3 104 61 2801 1830 1.7 9 5 2 6 20% 253054 50434 100%
c O  0.28  0 527 3 111 53 3003 1985 1.7 9 5 2 6 20% 253054 50434 100%
c -  0.33  0 398 4 158 41 3523 1772 1.8 9 5 2 6 20% 253054 50434 100%
c -  0.54  0 244 5 446 29 5603 2284 1.7 10 6 2 3 22% 253054 50434 100%
c #  0.59  0 235 5 498 28 6004 2645 1.7 10 6 2 3 23% 253054 50434 100%
c }  0.63  0 215 5 534 25 6836 3368 1.8 10 6 2 3 23% 253054 50434 100%
c [  0.63  0 122 5 534  2 6836 3368 2.1 22 11 2 6 32% 253054 50434 100%
c -  0.69  0 155 6 535  2 8228 3084 2.0 23 12 4 13 37% 253054 50434 100%
c I  0.75  0 162 6 536  2 10007 4700 2.0 24 12 4 13 36% 253054 50434 100%
c 
c  seconds   reductions conflicts       size   tier2         variables
c         MB     restarts    redundant     glue    trail          remaining
c           level     rate        size/glue  tier1   irredundant
c 
c -  0.82  0 163 7 537  2 11409 3855 2.0 22 11 4 13 37% 253054 50434 100%
c B  1.00  0 143 7 539  2 15008 7203 1.9 25 13 4 11 35% 253054 50434 100%
c -  1.03  0 143 8 539  2 15155 4590 1.9 25 13 4 11 35% 253054 50434 100%
c ]  1.05  0 144 8 539  2 15567 4985 2.0 25 13 4 11 36% 253054 50434 100%
c {  1.05  0 215 8 539 25 15567 4985 1.8 10 6 2 3 23% 253054 50434 100%
c -  1.38  0 176 9 912 21 19472 5951 1.8 10 6 2 3 24% 253054 50434 100%
c B  1.50  0 165 9 1089 20 21011 7306 1.8 10 6 2 3 24% 253054 50434 100%
c -  1.76  0 154 10 1386 19 24367 7564 1.8 10 6 2 3 24% 253054 50434 100%
c }  1.80  0 153 10 1428 18 24844 7978 1.8 10 6 2 3 24% 253054 50434 100%
c [  1.80  0 144 10 1428  2 24844 7978 2.0 25 13 4 11 36% 253054 50434 100%
c W  2.03  0 145 10 1429  2 28012 10919 2.1 27 12 4 11 39% 253054 50434 100%
c -  2.17  0 146 11 1431  2 29842 8866 2.1 28 13 4 11 39% 253054 50434 100%
c -  2.49  0 148 12 1434  2 35902 9872 2.0 30 15 4 11 38% 253054 50434 100%
c O  2.49  0 148 12 1434  2 36013 9983 2.0 30 15 4 11 38% 253054 50434 100%
c ]  2.73  0 145 12 1435  2 39812 13637 2.1 32 15 3 10 37% 253054 50434 100%
c {  2.73  0 153 12 1435 18 39812 13637 1.8 10 6 2 3 24% 253054 50434 100%
c -  2.94  0 150 13 1611 17 42548 11328 1.8 10 6 2 3 25% 253054 50434 100%
c W  3.21  0 151 13 1810 17 45014 13500 1.8 10 6 2 3 25% 253054 50434 100%
c -  3.66  0 150 14 2251 17 49782 13610 1.7 10 6 2 3 26% 253054 50434 100%
c F  4.03  0 146 14 2593 16 55017 18257 1.7 10 6 2 3 26% 253054 50434 100%
c 
c  seconds   reductions   conflicts        size  tier2        variables
c         MB      restarts      redundant     glue  trail          remaining
c           level       rate         size/glue tier1  irredundant
c 
c }  4.17  0 146 14 2723 16 56384 19460 1.7 10 6 2 3 26% 253054 50434 100%
c [  4.17  0 145 14 2723  2 56384 19460 2.1 32 15 3 10 37% 253054 50434 100%
c -  4.24  0 148 15 2724  2 57607 16141 2.1 31 15 3 10 38% 253054 50434 100%
c B  4.82  0 150 15 2725  2 66019 24083 2.1 33 16 3 10 36% 253054 50434 100%
c -  4.84  0 150 16 2725  2 66026 17762 2.1 33 16 3 10 36% 253054 50434 100%
c -  5.40  0 145 17 2731  3 75038 19097 2.1 33 16 3 9 35% 253054 50434 100%
c W  5.68  0 141 17 2731  3 78020 21907 2.1 33 16 3 9 35% 253054 50434 100%
c ]  5.84  0 141 17 2733  3 80214 23985 2.1 34 16 3 9 35% 253054 50434 100%
c {  5.84  0 146 17 2733 16 80214 23985 1.7 10 6 2 3 26% 253054 50434 100%
c -  6.24  0 145 18 3110 16 84647 21207 1.7 10 6 2 3 26% 253054 50434 100%
c B  6.75  0 143 18 3567 16 91021 26936 1.8 10 6 2 3 27% 253054 50434 100%
c -  7.14  0 143 19 3896 16 94852 24478 1.7 10 6 2 3 27% 253054 50434 100%
c }  8.07  0 143 19 4737 16 103838 32570 1.7 10 6 2 3 27% 253054 50434 100%
c [  8.07  0 141 19 4737  3 103838 32570 2.1 34 16 3 9 35% 253054 50434 100%
c I  8.14  0 139 19 4738  3 105023 33689 2.1 33 16 3 9 35% 253054 50434 100%
c -  8.20  0 140 20 4738  3 105655 27817 2.1 33 16 3 9 35% 253054 50434 100%
c -  8.94  0 139 21 4743  3 117057 29841 2.1 33 16 3 9 35% 253054 50434 100%
c B  9.15  0 137 21 4743  3 120024 32725 2.1 35 17 3 9 35% 253054 50434 100%
c -  9.82  0 136 22 4744  3 129058 30943 2.1 38 18 3 9 36% 253054 50434 100%
c ] 10.01  0 134 22 4744  3 131476 33284 2.2 39 18 3 9 35% 253054 50434 100%
c 
c  seconds   reductions   conflicts         size   tier2        variables
c         MB      restarts       redundant     glue   trail          remaining
c           level       rate          size/glue  tier1  irredundant
c 
c ? 10.01  0 134 22 4744  3 131476 33284 2.2 39 18 3 9 35% 253054 50434 100%
c 
c --- [ result ] -------------------------------------------------------------
c 
c writing result to '/private/tmp/p97-bare-generic-n14.sol'
c 
c --- [ run-time profiling ] -------------------------------------------------
c 
c process time taken by individual solving procedures
c (percentage relative to process time for solving)
c 
c         9.96  100.00% search
c         4.89   49.09% stable
c         4.83   48.52% unstable
c         0.23    2.29% walk
c         0.04    0.45% parse
c         0.01    0.10% lucky
c         0.00    0.00% simplify
c   =================================
c         9.96   99.55% solve
c 
c last line shows process time for solving
c (percentage relative to total process time)
c 
c --- [ statistics ] ---------------------------------------------------------
c 
c chronological:             62353        47.43 %  of conflicts
c conflicts:                131476     13198.35    per second
c decisions:               1050613    105466.85    per second
c fixed:                        59         0.12 %  of all variables
c learned:                  121034        92.06 %  per conflict
c learned_lits:            3577086       100.00 %  learned literals
c minimized:                     0         0.00 %  learned literals
c shrunken:                 132397         3.70 %  learned literals
c minishrunken:             231255         6.46 %  learned literals
c otfs:                       6650         5.06 %  of conflict
c propagations:          173541831        17.42 M  per second
c reduced:                   87628        66.65 %  per conflict
c rephased:                     15      8765.07    interval
c restarts:                   4744        27.71    interval
c stabilizing:                   5        57.61 %  of conflicts
c subsumed:                    238         0.06 %  of all clauses
c strengthened:               6531         1.75 %  of all clauses
c ticks:                 802385916         4.62    propagation
c walked:                        3     43825.33    interval
c 
c seconds are measured in process time for solving
c 
c --- [ glue usage ] ---------------------------------------------------------
c 
c focused glue 2 used 26923 clauses 29.57% accumulated 69.75% tier1
c focused glue 3 used 9445 clauses 10.37% accumulated 80.13% tier2
c 
c stable glue 2 used 74510 clauses 20.61% accumulated 50.79% tier1
c stable glue 3 used 34386 clauses 9.516% accumulated 60.31%
c stable glue 4 used 21229 clauses 5.874% accumulated 66.18%
c stable glue 5 used 15792 clauses 4.370% accumulated 70.55% tier2
c 
c 
c --- [ resources ] ----------------------------------------------------------
c 
c total process time since initialization:        10.01    seconds
c total real time since initialization:           10.01    seconds
c maximum resident set size of process:       313168.00    MB
c 
c --- [ shutting down ] ------------------------------------------------------
c 
c exit 0
